c User generated cnf file
p cnf 7 39
-4 3 5 0 
1 -5 2 0 
-4 7 1 0 
6 -4 1 0 
6 -7 3 0 
2 -7 1 0 
5 -4 5 0 
7 -7 7 0 
-2 5 3 0 
3 1 -3 0 
2 -4 7 0 
4 5 -7 0 
4 5 -1 0 
3 1 -4 0 
-1 6 1 0 
-7 7 3 0 
3 -1 3 0 
3 7 -6 0 
2 -4 7 0 
1 -6 6 0 
3 4 -4 0 
2 -3 3 0 
2 4 -1 0 
2 4 -4 0 
-1 3 2 0 
3 3 -6 0 
-1 3 3 0 
-6 3 3 0 
5 -5 6 0 
3 7 -7 0 
4 5 -1 0 
5 -3 4 0 
-7 6 7 0 
3 5 -1 0 
7 3 -3 0 
7 -4 2 0 
6 -2 5 0 
-3 5 5 0 
-6 3 6 0 
